100 52317

 721 148
882 467
115 739
209 244
526 491
521 849
552 958
962 507
237 365
281 482
359 201
201 154
758 450
278 501
235 73
494 713
4 296
666 17
442 641
29 217
109 61
610 939
727 616
805 42
75 25
838 39
146 803
128 131
853 498
42 229
356 108
41 172
934 435
34 478
17 102
677 866
153 524
998 275
378 613
588 44
599 955
629 817
874 957
342 17
981 330
27 569
825 823
287 497
646 815
731 12
168 318
610 592
268 216
749 339
821 776
455 991
906 661
685 81
401 727
922 485
981 374
476 976
702 710
634 200
558 537
576 466
130 89
822 268
363 655
705 571
819 922
693 489
292 877
371 538
794 47
29 288
149 778
779 16
296 711
11 401
512 919
676 794
113 981
187 86
807 250
744 391
227 782
310 335
98 629
55 519
623 137
664 883
758 688
406 840
69 498
312 827
289 727
762 477
548 594
751 223
